c t mc
c file mc2020_track1_013.cnf
p cnf 3025 1367
625 0
45 0
-52 0
70 0
108 0
-117 0
-125 0
-133 0
-279 0
-254 0
167 0
217 0
-220 0
233 0
-234 0
235 0
236 0
245 0
-246 0
260 0
-261 0
285 0
289 0
290 0
-304 0
-329 0
-354 0
336 0
375 0
-377 0
-399 0
-400 0
-455 0
-499 0
518 0
-519 0
-539 0
544 0
545 0
-547 0
600 0
-599 0
575 0
624 0
550 0
549 0
-574 0
552 0
-553 0
570 0
-566 0
568 0
-595 0
-596 0
621 0
2802 0
1693 0
620 0
543 0
100 0
619 0
594 0
541 0
229 0
623 0
598 0
605 0
604 0
615 0
1 0
376 0
350 0
51 0
20 0
374 0
622 0
597 0
572 0
571 0
546 0
614 0
603 0
602 0
601 0
542 0
325 0
300 0
275 0
7 0
3 0
2 0
573 0
402 0
387 0
228 0
25 0
528 0
527 0
526 0
351 0
278 0
26 0
19 0
522 0
517 0
335 0
311 0
288 0
264 0
253 0
208 0
124 0
495 0
589 0
411 0
386 0
203 0
22 0
607 0
326 0
132 0
116 0
554 0
551 0
606 0
494 0
476 0
107 0
27 0
577 0
540 0
361 0
226 0
17 0
613 0
612 0
611 0
610 0
609 0
585 0
584 0
608 0
560 0
559 0
586 0
555 0
359 0
230 0
207 0
169 0
145 0
144 0
99 0
87 0
75 0
50 0
588 0
204 0
498 0
142 0
8 0
474 0
454 0
191 0
579 0
516 0
497 0
482 0
448 0
423 0
412 0
373 0
365 0
340 0
307 0
74 0
115 0
106 0
91 0
88 0
57 0
303 0
219 0
83 0
302 0
301 0
525 0
500 0
475 0
524 0
473 0
472 0
447 0
471 0
265 0
259 0
258 0
221 0
69 0
11 0
44 0
24 0
618 0
593 0
507 0
277 0
252 0
227 0
251 0
349 0
324 0
299 0
450 0
449 0
425 0
422 0
274 0
342 0
250 0
249 0
225 0
200 0
224 0
199 0
175 0
150 0
174 0
149 0
49 0
23 0
48 0
202 0
617 0
616 0
592 0
591 0
567 0
590 0
565 0
515 0
564 0
514 0
563 0
538 0
513 0
489 0
488 0
587 0
562 0
561 0
536 0
583 0
582 0
558 0
533 0
557 0
532 0
581 0
556 0
580 0
578 0
576 0
529 0
531 0
530 0
501 0
287 0
173 0
493 0
398 0
372 0
348 0
323 0
298 0
273 0
248 0
223 0
198 0
347 0
148 0
123 0
147 0
122 0
121 0
98 0
73 0
97 0
72 0
47 0
46 0
428 0
134 0
440 0
31 0
394 0
389 0
362 0
358 0
345 0
341 0
415 0
110 0
218 0
284 0
165 0
209 0
535 0
14 0
503 0
459 0
211 0
81 0
56 0
152 0
178 0
197 0
521 0
496 0
306 0
131 0
312 0
509 0
327 0
397 0
364 0
80 0
369 0
481 0
105 0
322 0
321 0
38 0
405 0
272 0
222 0
371 0
508 0
140 0
505 0
294 0
333 0
486 0
65 0
78 0
96 0
470 0
185 0
465 0
127 0
328 0
194 0
316 0
93 0
36 0
241 0
510 0
363 0
172 0
424 0
151 0
55 0
90 0
430 0
21 0
4 0
537 0
512 0
511 0
534 0
483 0
62 0
95 0
155 0
32 0
378 0
166 0
438 0
339 0
520 0
370 0
40 0
357 0
429 0
506 0
480 0
114 0
396 0
504 0
502 0
477 0
479 0
478 0
453 0
297 0
271 0
30 0
452 0
427 0
451 0
269 0
37 0
247 0
196 0
195 0
171 0
457 0
426 0
170 0
403 0
401 0
146 0
120 0
71 0
368 0
126 0
18 0
5 0
338 0
119 0
337 0
86 0
16 0
-9 0
-28 0
-10 0
-76 0
-29 0
-12 0
-13 0
-58 0
-42 0
-61 0
-89 0
-176 0
-103 0
-128 0
-135 0
-159 0
-206 0
-231 0
-190 0
-280 0
-305 0
-366 0
-319 0
-416 0
-414 0
-419 0
-463 0
-215 0
-282 0
-383 0
-214 0
-94 0
-283 0
-381 0
-292 0
2363 -456 -433 432 458 0
884 54 -82 690 -6 0
-908 60 -109 -85 111 0
2201 413 441 390 -439 0
492 -523 446 -2614 -469 0
-1878 -334 309 -308 332 0
-2616 -523 446 -469 -492 0
-2201 413 -441 390 -391 0
-1812 -291 315 -317 267 0
-388 413 286 262 310 0
-437 262 -436 286 310 0
-879 53 77 -79 -54 0
-2484 -490 -487 -462 464 0
-1039 -68 244 -118 243 0
1038 68 -244 -118 193 0
-1038 68 244 -118 243 0
-878 -53 77 -79 -54 0
1771 -255 281 330 -331 0
-2477 -485 -487 461 -462 0
-877 53 -77 -79 -54 0
-1810 -291 -315 -317 267 0
-2479 485 -487 461 -462 0
-876 -77 -53 -79 -54 0
-2365 -433 432 456 -458 0
2365 -433 432 456 458 0
1039 -68 -244 -118 193 0
1772 255 -281 330 -331 0
1398 187 -186 -210 -212 0
1773 255 281 330 -331 0
1770 -255 -281 330 -331 0
-2363 -456 -433 432 -458 0
-85 -109 -60 -909 111 0
840 -68 -43 67 0
-841 67 43 68 0
-1069 102 -153 -101 0
841 67 43 -68 0
876 -77 -53 79 0
879 53 77 79 0
878 -53 77 79 0
877 53 -77 79 0
1115 -138 113 137 0
-1115 138 113 137 0
1114 -138 -113 137 0
-1070 101 177 -102 0
-839 -67 43 68 0
-2111 367 391 392 0
839 -67 43 -68 0
838 -68 -67 -43 0
-838 68 -67 -43 0
837 41 66 -67 0
-2276 -410 -434 435 0
346 -420 -421 395 0
2221 -420 418 395 0
-2221 420 418 395 0
2220 -420 -395 418 0
-2220 420 -395 418 0
2219 -420 -418 395 0
-2219 420 395 -418 0
2218 -420 -418 -395 0
-2218 420 -418 -395 0
782 -53 -54 6 0
1198 -158 109 -160 0
-1199 -158 -109 160 0
1199 -158 -109 -160 0
-1200 158 109 160 0
1200 158 109 -160 0
-1201 160 -109 158 0
1201 -109 -160 158 0
-1202 -136 -160 161 0
1202 -136 -160 -161 0
-1203 136 -160 161 0
1203 136 -160 -161 0
-1204 160 -136 161 0
1204 160 -136 -161 0
-1205 160 136 161 0
1205 160 136 -161 0
-1210 163 -162 -138 0
1210 -163 -162 -138 0
-1211 163 -162 138 0
1211 -163 -162 138 0
-904 -84 -60 85 0
-1112 -113 -137 138 0
1112 -113 -137 -138 0
-1113 138 -137 113 0
1113 -138 -137 113 0
-1114 138 -113 137 0
-343 -367 393 -392 0
2111 367 391 -392 0
-840 68 -43 67 0
2276 -410 -434 -435 0
-802 59 -33 -34 0
2110 -367 391 -392 0
392 -2110 -367 391 0
2109 367 -391 -392 0
-2109 367 -391 392 0
2108 -391 -367 -392 0
-2108 -391 392 -367 0
1998 314 390 388 0
2083 384 360 -385 0
-2083 385 384 360 0
2082 384 -360 -385 0
-2082 385 -360 384 0
2081 360 -385 -384 0
-2081 385 360 -384 0
2080 -384 -385 -360 0
-2080 385 -384 -360 0
2063 355 379 -380 0
-2063 355 379 380 0
-2178 -409 -385 410 0
2177 384 -409 408 0
-2177 409 408 384 0
2176 -384 408 -409 0
-2176 409 408 -384 0
2175 384 -408 -409 0
-2175 384 -408 409 0
2174 -409 -408 -384 0
-2174 409 -408 -384 0
-2199 -413 -441 -391 0
-1198 -158 160 109 0
910 60 -111 85 0
-2200 -390 -441 -391 0
2181 385 409 -410 0
-2181 385 409 410 0
2180 409 -385 -410 0
-2180 410 -385 409 0
2179 -410 385 -409 0
-2179 410 385 -409 0
2178 -410 -385 -409 0
2307 -442 441 417 0
-2307 442 441 417 0
2306 -442 441 -417 0
-2306 442 441 -417 0
2305 -442 -441 417 0
-2305 442 -441 417 0
2304 -442 -441 -417 0
-2304 442 -441 -417 0
2199 -413 441 -439 0
-2293 439 413 437 0
-2295 439 413 -437 0
2295 -439 -437 413 0
2293 -439 413 437 0
2279 410 434 -435 0
-2279 410 434 435 0
2278 -410 434 -435 0
-2278 -410 434 435 0
2277 410 -434 -435 0
-2277 410 -434 435 0
802 -34 -33 -59 0
-803 59 -33 34 0
-1295 158 184 183 0
1294 183 -184 -158 0
-1294 183 184 -158 0
1293 -184 -183 158 0
-655 -41 -39 15 0
-1293 158 184 -183 0
1292 -184 -183 -158 0
-719 35 -39 6 0
717 -35 39 6 0
-1292 -158 184 -183 0
719 6 39 35 0
1071 102 -153 101 0
706 6 33 -34 0
-706 6 33 34 0
1268 -177 -154 179 0
1270 -154 179 177 0
1295 158 -184 183 0
184 -186 -161 160 0
1217 163 139 -164 0
-1217 163 139 164 0
1216 163 -139 -164 0
-1216 163 -139 164 0
1215 -163 139 -164 0
-1215 -163 139 164 0
-308 -281 331 332 0
-782 -53 54 6 0
1212 -138 -163 162 0
-356 332 407 408 0
1783 -281 -309 -308 0
-239 189 -213 238 0
238 -239 -189 213 0
-332 -334 356 -384 0
1783 -308 -309 -257 0
1782 281 -309 257 0
-1782 257 309 281 0
-937 68 -92 -118 0
-356 332 -334 -384 0
-939 68 92 -118 0
937 68 -92 118 0
356 -380 406 404 0
-332 356 407 408 0
-1212 -138 163 162 0
-1304 187 -186 -162 0
805 34 -59 33 0
-805 59 33 34 0
804 -34 33 -59 0
-1213 138 163 162 0
-785 53 -6 54 0
785 53 -54 -6 0
1213 138 -163 162 0
-804 59 33 -34 0
905 -84 -85 60 0
-1214 -163 -139 164 0
803 34 -33 -59 0
904 -84 -85 -60 0
1306 -187 -162 186 0
1020 139 63 113 0
-1020 -139 63 113 0
-936 -68 -92 -118 0
911 -111 -60 85 0
-85 -909 111 112 0
939 68 92 118 0
157 -82 130 -156 0
981 79 -102 -104 0
-981 79 -102 104 0
1041 -244 118 193 0
980 -79 -102 -104 0
-1071 101 177 102 0
-980 -79 -102 104 0
979 79 102 -104 0
-979 79 102 104 0
978 102 -79 -104 0
-978 102 -79 104 0
973 77 101 -102 0
-973 77 101 102 0
972 -77 101 -102 0
-972 -77 101 102 0
971 77 -101 -102 0
-971 77 -101 102 0
-837 41 66 67 0
-826 41 -64 66 0
-828 41 66 64 0
1214 -163 -139 -164 0
-717 6 -39 -35 0
332 -356 -382 -380 0
-783 -53 54 -6 0
783 -53 -54 -6 0
-784 53 54 6 0
784 53 -54 6 0
970 -77 -101 -102 0
-970 -77 -101 102 0
-1076 129 -102 -104 0
1076 -129 -102 -104 0
-1077 129 -102 104 0
1077 -129 -102 104 0
-1078 129 102 -104 0
1078 102 -104 -129 0
-1079 129 102 104 0
1079 104 102 -129 0
938 -68 92 118 0
-938 -68 92 -118 0
-1783 -281 309 -308 0
936 -68 -92 118 0
-910 60 85 111 0
-911 85 111 -60 0
908 60 -111 -85 0
-85 909 -111 -60 0
907 -85 60 84 0
-907 60 85 84 0
906 84 -85 -60 0
-906 84 85 -60 0
-1307 162 186 187 0
-905 -84 85 60 0
-1306 187 -162 186 0
1305 -186 -187 162 0
-1305 187 -186 162 0
1304 -186 -187 -162 0
-1407 188 -212 213 0
1406 -188 -212 -213 0
-1406 -188 -212 213 0
1399 187 186 -212 0
-1398 -186 212 -210 0
1400 187 210 -212 0
-1377 205 -179 180 0
1377 -205 -179 180 0
1331 168 192 -193 0
-1331 168 192 193 0
1330 -168 192 -193 0
-1330 -168 192 193 0
1329 168 -192 -193 0
-1329 168 -192 193 0
1328 -168 -192 -193 0
-1328 -168 -192 193 0
164 -192 141 -189 0
164 192 141 189 0
1315 188 164 -189 0
-1315 188 164 189 0
-1811 291 -315 -317 0
1811 291 -315 317 0
1812 -291 315 317 0
1574 -256 -255 181 0
1517 216 242 -240 0
-1516 -216 -240 -242 0
-1517 216 -242 -240 0
1518 -216 240 242 0
-1518 -216 240 -242 0
1519 216 242 240 0
-1519 216 -242 240 0
1516 -216 -240 242 0
1515 -240 239 -213 0
-1515 -213 240 239 0
1514 -240 239 213 0
1314 188 -164 -189 0
-1314 188 -164 189 0
1313 -188 164 -189 0
-1313 -188 164 189 0
1312 -188 -164 -189 0
-1312 -188 -164 189 0
1311 163 187 -188 0
-1311 163 187 188 0
1310 -163 187 -188 0
-1310 -163 187 188 0
1309 163 -188 -187 0
-1309 163 188 -187 0
1308 -163 -188 -187 0
-1308 -163 188 -187 0
1307 -187 186 162 0
-1879 -334 309 308 0
-1876 -334 309 -332 0
-1770 -255 331 -281 0
-2405 442 466 467 0
1833 -346 -344 320 0
1810 -291 -315 317 0
1605 -263 262 238 0
1603 -263 -262 238 0
-1603 263 238 -262 0
1602 -263 -262 -238 0
1626 -244 -268 -270 0
-1629 270 244 268 0
1629 -270 244 268 0
-1602 263 -238 -262 0
1578 -256 -232 -257 0
-1672 -256 281 -255 0
-1673 256 -255 281 0
1579 -256 -257 232 0
-1575 -255 -181 256 0
1627 -270 244 -268 0
1581 256 -257 232 0
-1628 270 268 -244 0
-1605 238 262 263 0
-1604 263 -238 262 0
-1581 256 257 232 0
1628 -270 -244 268 0
1580 256 -257 -232 0
-1579 -256 232 257 0
-1626 270 -244 -268 0
-1580 256 257 -232 0
-1627 270 244 -268 0
1604 -263 -238 262 0
-1574 -255 181 256 0
-1813 291 -317 315 0
1813 291 317 315 0
-308 -257 331 332 0
-1783 -308 309 -257 0
-1771 -255 281 331 0
-1772 255 -281 331 0
-1773 255 331 281 0
1637 295 296 270 0
1727 295 293 270 0
1725 295 -293 270 0
1675 255 -281 256 0
-1675 256 281 255 0
1674 255 -281 -256 0
-1674 -256 281 255 0
1673 256 -255 -281 0
2062 -355 379 -380 0
-2062 -355 379 380 0
2061 -379 355 -380 0
-2061 -379 355 380 0
2060 -379 -380 -355 0
-2060 380 -379 -355 0
346 420 421 395 0
-1831 296 -320 346 0
1831 -346 296 -320 0
1922 343 -344 318 0
-1922 343 344 318 0
1999 -314 390 388 0
1878 -308 334 332 0
-2363 -456 433 458 0
2616 -492 523 -469 0
-2614 -523 -446 469 0
2503 491 467 -492 0
-2503 491 467 492 0
2502 491 -467 -492 0
-2502 491 -467 492 0
2501 -492 467 -491 0
-2501 492 467 -491 0
2500 -492 -467 -491 0
-2500 492 -467 -491 0
2499 466 490 -491 0
-2499 466 490 491 0
2498 -466 490 -491 0
-2498 -466 490 491 0
2497 -491 466 -490 0
-2497 491 466 -490 0
2496 -491 -466 -490 0
-2496 491 -466 -490 0
-2485 -490 464 462 0
-2486 -490 487 464 0
-2364 456 -432 -458 0
2363 -456 433 -458 0
-2365 456 433 458 0
2365 456 -458 433 0
2319 420 444 -445 0
-2319 420 444 445 0
2318 -420 444 -445 0
-2318 -420 444 445 0
2200 -390 441 -439 0
-2166 -406 407 -382 0
356 -380 -404 -406 0
-2167 382 -406 407 0
1672 -256 -281 -255 0
2167 382 -406 -407 0
-2168 406 407 -382 0
2168 -382 -407 406 0
-2169 382 407 406 0
2169 382 -407 406 0
2484 490 -462 -487 0
2477 -485 487 461 0
-2476 -485 -487 -461 0
2478 485 -461 487 0
-2478 485 -487 -461 0
2479 485 487 461 0
2476 -485 487 -461 0
2472 -485 -484 -460 0
-2472 485 -484 -460 0
-460 435 458 -434 0
2413 -469 444 468 0
-2413 469 444 468 0
2412 -469 468 -444 0
-2412 469 468 -444 0
2411 -469 -468 444 0
-2411 469 -468 444 0
2410 -444 -468 -469 0
-2410 -444 -468 469 0
2405 442 466 -467 0
2403 442 -467 -466 0
2364 456 -432 458 0
-1514 213 240 239 0
1513 -213 -240 -239 0
-1513 -213 240 -239 0
1512 213 -240 -239 0
-1512 213 240 -239 0
1507 237 213 -238 0
-1507 237 213 238 0
1506 237 -213 -238 0
-1506 237 -213 238 0
1505 -237 213 -238 0
-1505 -237 213 238 0
1504 -237 -213 -238 0
-1504 -237 -213 238 0
184 210 -183 182 0
-183 210 -181 184 0
1575 -256 -255 -181 0
-1576 256 181 255 0
-1041 118 244 243 0
1576 255 181 -256 0
1409 188 212 -213 0
-1409 188 213 212 0
1408 -188 -213 212 0
-1408 -188 213 212 0
1407 188 -213 -212 0
-1577 256 255 -181 0
1577 -256 255 -181 0
-1578 -256 257 -232 0
2166 -382 -406 -407 0
-2316 -420 -444 445 0
-2308 -442 -418 443 0
2311 442 418 -443 0
-2311 442 418 443 0
2310 442 -443 -418 0
-2310 442 443 -418 0
2308 -442 -418 -443 0
-2309 -442 443 418 0
2309 -442 -443 418 0
2316 -420 -444 -445 0
2404 -442 466 -467 0
-2317 420 -444 445 0
2317 420 -444 -445 0
-2403 442 467 -466 0
2402 -442 -467 -466 0
-2402 -442 -466 467 0
2393 -464 462 439 0
-2393 439 462 464 0
2392 -439 462 -464 0
-2392 -439 462 464 0
-2362 -456 -432 -458 0
2391 439 -464 -462 0
2362 -456 -432 458 0
-2391 464 439 -462 0
2390 -439 -464 -462 0
-2390 -439 464 -462 0
-460 435 434 -458 0
-2404 -442 467 466 0
112 137 136 0
332 384 356 0
189 213 239 0
332 356 -408 0
-356 -332 -408 0
-189 -213 239 0
-164 -189 192 0
109 111 -136 0
-1230 168 -143 0
-239 266 240 0
1018 139 -113 0
-92 -67 -141 0
-313 262 286 0
-1712 291 -266 0
1712 -291 -266 0
-1713 291 266 0
-1788 309 310 0
1788 309 -310 0
-1400 212 210 0
-164 189 -192 0
-242 -267 -266 0
240 263 266 0
243 267 268 0
193 -242 -243 0
1635 -270 296 0
184 160 210 0
-232 -210 -160 0
1459 201 -276 0
1573 205 -255 0
-182 181 232 0
-1727 -295 293 0
-1725 -295 -293 0
-1500 -212 237 0
1500 -212 -237 0
-1637 -296 270 0
-1459 201 276 0
-1501 237 212 0
1601 237 -262 0
-1601 237 262 0
-1231 168 143 0
1376 -205 -180 0
34 -35 -6 0
-1376 205 -180 0
-1375 205 179 0
-1785 308 309 0
1785 308 -309 0
-1786 -309 310 0
1786 -309 -310 0
1375 -205 179 0
1231 -168 143 0
1361 -201 101 0
-391 -392 417 0
2473 -485 460 0
-2474 485 484 0
-1361 201 101 0
263 -286 313 0
263 -262 313 0
1360 -201 -101 0
-1360 201 -101 0
1600 -237 -262 0
193 242 243 0
1230 -168 -143 0
-1600 -237 262 0
-1802 314 -313 0
1802 -314 -313 0
314 -1804 313 0
1804 -314 313 0
-1806 -314 315 0
1069 -101 153 0
1806 -314 -315 0
-130 -104 156 0
-1635 -270 -296 0
-193 243 -242 0
1808 314 -315 0
-1270 -179 177 0
1070 -177 -102 0
1501 -237 212 0
-1268 -177 -179 0
318 -317 -293 0
-153 154 -129 0
-1923 344 -318 0
182 -157 -181 0
404 -406 -356 0
-356 -332 384 0
-356 406 -404 0
-318 -317 293 0
137 -162 -161 0
-318 317 -293 0
317 318 293 0
-156 130 154 0
-213 216 -192 0
1830 -346 -296 0
-1830 346 -296 0
-189 192 -141 0
-1191 158 -157 0
-295 -320 318 0
-156 -179 180 0
1191 -158 -157 0
-84 -82 33 0
-130 -129 -156 0
-1866 -255 330 0
1866 -255 -330 0
-1867 255 330 0
1867 255 -330 0
-1458 -201 276 0
1193 -158 157 0
-1193 158 157 0
-1808 314 315 0
1458 -201 -276 0
242 -193 -243 0
244 242 243 0
-1573 205 255 0
183 -210 -160 0
-1572 -205 255 0
189 -192 -141 0
-263 -266 239 0
-1399 212 186 0
1879 308 334 0
1572 -205 -255 0
1876 -332 334 0
1920 -344 -343 0
-1920 344 -343 0
-182 157 -181 0
1713 -291 266 0
143 -118 141 0
-157 -182 181 0
156 -154 130 0
-1018 -139 -113 0
343 318 -317 0
182 157 181 0
1021 139 -63 0
-158 -182 -183 0
158 183 -182 0
-1021 -139 -63 0
367 315 -343 0
315 367 -317 0
183 -158 182 0
158 182 -183 0
-1753 276 -352 0
-1956 353 352 0
1955 -353 -352 0
-1955 353 -352 0
346 320 344 0
-1833 346 320 0
-181 -156 180 0
2723 523 -548 0
355 331 356 0
-355 -356 331 0
-281 -257 -332 0
-2627 -523 548 0
257 281 -332 0
-334 -310 -360 0
-355 -331 356 0
-385 436 -360 0
-1998 314 -390 0
-315 318 343 0
-420 421 -395 0
-355 1965 330 0
-466 464 441 0
2292 -439 -413 0
-466 -464 -441 0
466 -464 441 0
-85 -111 109 0
-836 67 -41 0
835 -66 -67 0
-1752 -276 -352 0
-352 404 379 0
2054 -353 -379 0
-2055 353 379 0
-2054 -353 379 0
999 84 -109 0
-999 84 109 0
998 -84 -109 0
-998 -84 109 0
-281 -257 -308 0
1956 -353 352 0
1923 -344 -318 0
466 464 -441 0
2486 487 490 0
404 -406 380 0
355 -356 -331 0
2614 523 469 0
385 435 -436 0
2627 -523 -548 0
-390 315 391 0
-2629 523 548 0
-315 -390 -391 0
-2722 -523 548 0
-391 390 315 0
2722 -523 -548 0
1964 -355 -330 0
-1964 355 -330 0
-1965 330 355 0
-651 15 -6 0
-2723 523 548 0
650 -15 6 0
2614 492 523 0
-469 523 -446 0
-315 390 391 0
2629 523 -548 0
-650 15 6 0
651 -15 -6 0
655 15 41 0
420 -346 -421 0
344 -393 -395 0
1753 276 352 0
2055 353 -379 0
1752 -276 352 0
654 -15 41 0
-658 -43 41 0
969 -101 -6 0
380 406 -404 0
33 -689 6 0
2485 490 462 0
420 -421 -395 0
-969 101 -6 0
-704 34 -33 0
2361 -456 431 0
704 -34 -33 0
66 141 63 0
113 112 63 0
60 112 111 0
-707 34 -6 0
909 -112 -60 0
707 -34 -6 0
85 -112 -60 0
-34 35 -6 0
-34 -35 6 0
360 435 -436 0
413 -388 437 0
-1999 -314 -390 0
-835 67 -66 0
-392 -417 391 0
-391 392 -417 0
64 39 -63 0
2474 -485 484 0
392 417 391 0
-418 -417 -393 0
-2473 485 460 0
34 35 6 0
-718 39 -6 0
-484 458 434 0
84 -59 -33 0
84 -59 82 0
469 523 446 0
718 -6 -39 0
-654 -15 -41 0
15 41 39 0
-346 -420 421 0
468 -467 443 0
-2360 456 -431 0
968 -101 6 0
-968 6 101 0
-35 -59 -60 0
406 -431 -404 0
-407 -431 432 0
-433 408 432 0
-409 -433 -434 0
-780 53 6 0
780 -53 6 0
-781 53 -6 0
875 -77 -6 0
873 -77 6 0
-873 77 6 0
-2292 439 -413 0
781 -53 -6 0
826 -66 -64 0
828 -66 64 0
-441 439 -391 0
836 -67 -41 0
39 -63 -60 0
-418 444 443 0
35 59 -60 0
-35 59 60 0
-59 35 60 0
-445 -421 446 0
-446 421 -445 0
437 -462 461 0
-875 77 -6 0
460 461 -436 0
-458 -434 460 0
434 458 460 0
445 -421 -446 0
446 421 445 0
-291 317 -267 0
-291 293 -267 0
267 268 -293 0
291 268 -293 0
2360 -456 -431 0
-2361 456 431 0
-460 -461 0
257 308 0
266 267 0
380 382 0
-286 388 0
129 130 0
-310 388 0
-313 -263 0
-407 -408 0
-270 -295 0
-296 -295 0
-66 -41 0
67 92 0
-379 -404 0
-232 -181 0
-154 153 0
-458 484 0
-84 59 0
-101 -177 0
367 -393 0
-444 -443 0
104 130 0
104 -156 0
-262 388 0
-286 -413 0
-390 -388 0
409 434 0
382 -332 0
-2822 548 0
-113 -112 0
281 308 0
60 63 0
-437 462 0
-315 -367 0
242 267 0
-444 418 0
-130 -157 0
-157 82 0
295 320 0
320 -318 0
382 356 0
343 -393 0
-66 -141 0
-330 331 0
352 -404 0
436 437 0
-344 395 0
395 393 0
392 -393 0
-331 -332 0
-310 -413 0
-262 -413 0
-112 -111 0
360 310 0
384 334 0
-141 -63 0
-309 334 0
360 334 0
1897 388 0
-318 -343 0
317 -367 0
-113 -63 0
-64 63 0
487 462 0
-111 136 0
-33 -6 0
6 82 0
-179 154 0
-130 -180 0
-690 82 0
-112 -137 0
-157 156 0
-1897 -413 0
658 43 0
129 -154 0
434 433 0
-2824 -548 0
79 54 0
161 186 0
-432 407 0
-432 431 0
433 -432 0
-461 436 0
484 -434 0
-435 460 0
192 -216 0
-54 82 0
689 -33 0
162 -137 0
404 431 0
431 -406 0
-244 -243 0
161 162 0
-408 433 0
-177 153 0
-216 213 0
92 141 0
-240 -266 0
490 -464 0
-141 -143 0
-187 212 0
210 186 0
-435 436 0
-41 43 0
293 -268 0
-443 -468 0
-468 467 0
-232 182 0
-39 -64 0
-184 -210 0
118 -143 0
-136 -137 0
-109 136 0
156 181 0
417 418 0
393 418 0
-884 82 0
-267 -268 0
-243 -268 0
181 -180 0
-180 179 0
441 391 0
-160 186 0
63 -39 0
-238 239 0
-102 153 0
462 -461 0
